1328
44 55 9 10 34 83 64 69 79 15 90 54 89 84 58 30 96 91 18 24 28 63 47 39 19 50 6 26 94 49 29 1 77 57 20 81 36 46 42 67 92 14 21 3 31 99 48 87 86 75 43 98 2 27 38 51 45 93 4 41 88 68 85 76 97 82 59 17 35 32 12 22 66 72 74 8 56 7 95 70 11 13 65 5 60 53 25 78 62 40 16 23 52 37 33 71 80 73 61 
